NAME: map9_480
TYPE: TSP
COMMENT: autogenerated using a wonderful map creator
DIMENSION: 600
EDGE_WEIGHT_TYPE: EUC_2D
NODE_COORD_SECTION
1 1.0 5.0
2 1.0 4.0
3 4.0 5.0
4 4.0 4.0
5 7.0 5.0
6 7.0 4.0
7 10.0 5.0
8 10.0 4.0
9 13.0 5.0
10 13.0 4.0
11 16.0 5.0
12 16.0 4.0
13 19.0 5.0
14 19.0 4.0
15 22.0 5.0
16 22.0 4.0
17 25.0 5.0
18 25.0 4.0
19 28.0 5.0
20 28.0 4.0
21 31.0 5.0
22 31.0 4.0
23 34.0 5.0
24 34.0 4.0
25 37.0 5.0
26 37.0 4.0
27 40.0 5.0
28 40.0 4.0
29 43.0 5.0
30 43.0 4.0
31 1.0 95.0
32 1.0 96.0
33 4.0 95.0
34 4.0 96.0
35 7.0 95.0
36 7.0 96.0
37 10.0 95.0
38 10.0 96.0
39 13.0 95.0
40 13.0 96.0
41 16.0 95.0
42 16.0 96.0
43 19.0 95.0
44 19.0 96.0
45 22.0 95.0
46 22.0 96.0
47 25.0 95.0
48 25.0 96.0
49 28.0 95.0
50 28.0 96.0
51 31.0 95.0
52 31.0 96.0
53 34.0 95.0
54 34.0 96.0
55 37.0 95.0
56 37.0 96.0
57 40.0 95.0
58 40.0 96.0
59 43.0 95.0
60 43.0 96.0
61 1.0 3.0
62 4.0 97.0
63 7.0 3.0
64 10.0 97.0
65 13.0 3.0
66 16.0 97.0
67 19.0 3.0
68 22.0 97.0
69 25.0 3.0
70 28.0 97.0
71 31.0 3.0
72 34.0 97.0
73 37.0 3.0
74 40.0 97.0
75 43.0 3.0
76 1.0 2.0
77 4.0 98.0
78 7.0 2.0
79 10.0 98.0
80 13.0 2.0
81 16.0 98.0
82 19.0 2.0
83 22.0 98.0
84 25.0 2.0
85 28.0 98.0
86 31.0 2.0
87 34.0 98.0
88 37.0 2.0
89 40.0 98.0
90 43.0 2.0
91 1.0 97.0
92 4.0 3.0
93 7.0 97.0
94 10.0 3.0
95 13.0 97.0
96 16.0 3.0
97 19.0 97.0
98 22.0 3.0
99 25.0 97.0
100 28.0 3.0
101 31.0 97.0
102 34.0 3.0
103 37.0 97.0
104 40.0 3.0
105 43.0 97.0
106 1.0 98.0
107 4.0 2.0
108 7.0 98.0
109 10.0 2.0
110 13.0 98.0
111 16.0 2.0
112 19.0 98.0
113 22.0 2.0
114 25.0 98.0
115 28.0 2.0
116 31.0 98.0
117 34.0 2.0
118 37.0 98.0
119 40.0 2.0
120 43.0 98.0
121 2.0 95.0
122 2.0 96.0
123 5.0 95.0
124 5.0 96.0
125 8.0 95.0
126 8.0 96.0
127 11.0 95.0
128 11.0 96.0
129 14.0 95.0
130 14.0 96.0
131 17.0 95.0
132 17.0 96.0
133 20.0 95.0
134 20.0 96.0
135 23.0 95.0
136 23.0 96.0
137 26.0 95.0
138 26.0 96.0
139 29.0 95.0
140 29.0 96.0
141 32.0 95.0
142 32.0 96.0
143 35.0 95.0
144 35.0 96.0
145 38.0 95.0
146 38.0 96.0
147 41.0 95.0
148 41.0 96.0
149 44.0 95.0
150 44.0 96.0
151 2.0 5.0
152 2.0 4.0
153 5.0 5.0
154 5.0 4.0
155 8.0 5.0
156 8.0 4.0
157 11.0 5.0
158 11.0 4.0
159 14.0 5.0
160 14.0 4.0
161 17.0 5.0
162 17.0 4.0
163 20.0 5.0
164 20.0 4.0
165 23.0 5.0
166 23.0 4.0
167 26.0 5.0
168 26.0 4.0
169 29.0 5.0
170 29.0 4.0
171 32.0 5.0
172 32.0 4.0
173 35.0 5.0
174 35.0 4.0
175 38.0 5.0
176 38.0 4.0
177 41.0 5.0
178 41.0 4.0
179 44.0 5.0
180 44.0 4.0
181 2.0 97.0
182 5.0 3.0
183 8.0 97.0
184 11.0 3.0
185 14.0 97.0
186 17.0 3.0
187 20.0 97.0
188 23.0 3.0
189 26.0 97.0
190 29.0 3.0
191 32.0 97.0
192 35.0 3.0
193 38.0 97.0
194 41.0 3.0
195 44.0 97.0
196 2.0 98.0
197 5.0 2.0
198 8.0 98.0
199 11.0 2.0
200 14.0 98.0
201 17.0 2.0
202 20.0 98.0
203 23.0 2.0
204 26.0 98.0
205 29.0 2.0
206 32.0 98.0
207 35.0 2.0
208 38.0 98.0
209 41.0 2.0
210 44.0 98.0
211 2.0 3.0
212 5.0 97.0
213 8.0 3.0
214 11.0 97.0
215 14.0 3.0
216 17.0 97.0
217 20.0 3.0
218 23.0 97.0
219 26.0 3.0
220 29.0 97.0
221 32.0 3.0
222 35.0 97.0
223 38.0 3.0
224 41.0 97.0
225 44.0 3.0
226 2.0 2.0
227 5.0 98.0
228 8.0 2.0
229 11.0 98.0
230 14.0 2.0
231 17.0 98.0
232 20.0 2.0
233 23.0 98.0
234 26.0 2.0
235 29.0 98.0
236 32.0 2.0
237 35.0 98.0
238 38.0 2.0
239 41.0 98.0
240 44.0 2.0
241 18.0 17.0
242 28.0 58.0
243 28.0 67.0
244 28.0 76.0
245 9.0 72.0
246 5.0 83.0
247 28.0 85.0
248 10.0 27.0
249 34.0 12.0
250 34.0 21.0
251 31.0 86.0
252 22.0 28.0
253 43.0 60.0
254 22.0 37.0
255 37.0 35.0
256 43.0 87.0
257 13.0 83.0
258 35.0 83.0
259 7.0 12.0
260 24.0 83.0
261 1.0 90.0
262 7.0 21.0
263 16.0 88.0
264 28.0 62.0
265 40.0 45.0
266 28.0 89.0
267 40.0 54.0
268 21.0 50.0
269 25.0 20.0
270 20.0 72.0
271 31.0 81.0
272 34.0 25.0
273 31.0 90.0
274 43.0 55.0
275 13.0 51.0
276 14.0 28.0
277 37.0 30.0
278 17.0 39.0
279 13.0 87.0
280 16.0 83.0
281 36.0 61.0
282 40.0 49.0
283 10.0 8.0
284 40.0 58.0
285 10.0 26.0
286 25.0 24.0
287 22.0 9.0
288 31.0 76.0
289 37.0 16.0
290 22.0 27.0
291 13.0 55.0
292 43.0 68.0
293 43.0 77.0
294 16.0 60.0
295 13.0 73.0
296 1.0 71.0
297 28.0 34.0
298 28.0 43.0
299 9.0 39.0
300 28.0 52.0
301 5.0 50.0
302 27.0 83.0
303 25.0 10.0
304 31.0 53.0
305 25.0 19.0
306 2.0 17.0
307 31.0 62.0
308 25.0 28.0
309 10.0 39.0
310 31.0 71.0
311 22.0 13.0
312 43.0 45.0
313 13.0 41.0
314 4.0 72.0
315 13.0 50.0
316 16.0 46.0
317 16.0 55.0
318 1.0 66.0
319 1.0 75.0
320 1.0 84.0
321 28.0 56.0
322 7.0 91.0
323 8.0 83.0
324 19.0 83.0
325 10.0 25.0
326 39.0 61.0
327 19.0 92.0
328 31.0 66.0
329 43.0 31.0
330 43.0 40.0
331 31.0 84.0
332 13.0 45.0
333 4.0 76.0
334 16.0 41.0
335 13.0 54.0
336 4.0 85.0
337 1.0 61.0
338 36.0 28.0
339 16.0 59.0
340 26.0 72.0
341 38.0 83.0
342 40.0 25.0
343 7.0 86.0
344 19.0 78.0
345 23.0 39.0
346 32.0 17.0
347 13.0 13.0
348 20.0 61.0
349 43.0 26.0
350 13.0 40.0
351 43.0 53.0
352 13.0 49.0
353 4.0 80.0
354 22.0 79.0
355 28.0 10.0
356 37.0 77.0
357 5.0 17.0
358 28.0 19.0
359 37.0 86.0
360 28.0 28.0
361 28.0 37.0
362 40.0 11.0
363 18.0 72.0
364 19.0 46.0
365 31.0 38.0
366 43.0 12.0
367 13.0 8.0
368 31.0 56.0
369 35.0 17.0
370 24.0 17.0
371 43.0 30.0
372 31.0 65.0
373 23.0 61.0
374 13.0 26.0
375 13.0 35.0
376 1.0 33.0
377 13.0 44.0
378 1.0 42.0
379 16.0 40.0
380 22.0 74.0
381 34.0 76.0
382 16.0 49.0
383 28.0 23.0
384 7.0 58.0
385 19.0 50.0
386 39.0 28.0
387 40.0 91.0
388 19.0 68.0
389 31.0 42.0
390 43.0 16.0
391 25.0 75.0
392 4.0 52.0
393 43.0 34.0
394 16.0 26.0
395 34.0 71.0
396 37.0 67.0
397 14.0 83.0
398 38.0 50.0
399 7.0 44.0
400 7.0 53.0
401 31.0 10.0
402 19.0 54.0
403 40.0 86.0
404 19.0 63.0
405 20.0 28.0
406 10.0 72.0
407 4.0 38.0
408 43.0 20.0
409 25.0 70.0
410 10.0 81.0
411 25.0 79.0
412 10.0 90.0
413 34.0 57.0
414 1.0 32.0
415 16.0 30.0
416 34.0 75.0
417 18.0 39.0
418 7.0 39.0
419 7.0 48.0
420 19.0 13.0
421 7.0 57.0
422 19.0 31.0
423 29.0 72.0
424 40.0 72.0
425 31.0 23.0
426 12.0 28.0
427 34.0 52.0
428 22.0 50.0
429 37.0 48.0
430 34.0 61.0
431 34.0 70.0
432 37.0 66.0
433 7.0 52.0
434 8.0 17.0
435 7.0 61.0
436 19.0 26.0
437 18.0 61.0
438 42.0 28.0
439 21.0 72.0
440 40.0 85.0
441 4.0 10.0
442 10.0 53.0
443 34.0 20.0
444 25.0 60.0
445 37.0 25.0
446 1.0 13.0
447 34.0 56.0
448 25.0 87.0
449 43.0 86.0
450 14.0 50.0
451 7.0 29.0
452 7.0 38.0
453 28.0 70.0
454 36.0 83.0
455 28.0 79.0
456 19.0 21.0
457 28.0 88.0
458 11.0 17.0
459 40.0 62.0
460 31.0 13.0
461 40.0 89.0
462 25.0 37.0
463 10.0 48.0
464 34.0 15.0
465 34.0 51.0
466 13.0 86.0
467 15.0 28.0
468 16.0 91.0
469 28.0 65.0
470 5.0 72.0
471 40.0 39.0
472 28.0 83.0
473 40.0 57.0
474 25.0 23.0
475 25.0 32.0
476 4.0 9.0
477 10.0 43.0
478 10.0 61.0
479 34.0 28.0
480 22.0 26.0
481 10.0 70.0
482 22.0 35.0
483 43.0 67.0
484 24.0 72.0
485 13.0 72.0
486 43.0 85.0
487 7.0 19.0
488 7.0 28.0
489 28.0 78.0
490 21.0 39.0
491 40.0 52.0
492 41.0 17.0
493 9.0 83.0
494 10.0 20.0
495 10.0 29.0
496 22.0 12.0
497 31.0 79.0
498 37.0 10.0
499 25.0 54.0
500 37.0 19.0
501 3.0 17.0
502 43.0 62.0
503 43.0 71.0
504 16.0 63.0
505 1.0 74.0
506 16.0 72.0
507 13.0 85.0
508 36.0 50.0
509 1.0 83.0
510 28.0 46.0
511 1.0 92.0
512 7.0 23.0
513 28.0 82.0
514 33.0 17.0
515 21.0 61.0
516 19.0 91.0
517 41.0 39.0
518 10.0 33.0
519 31.0 74.0
520 22.0 16.0
521 31.0 83.0
522 43.0 48.0
523 20.0 83.0
524 37.0 23.0
525 13.0 62.0
526 16.0 58.0
527 16.0 67.0
528 28.0 32.0
529 13.0 80.0
530 28.0 41.0
531 13.0 89.0
532 16.0 85.0
533 40.0 15.0
534 40.0 24.0
535 40.0 33.0
536 19.0 77.0
537 10.0 28.0
538 25.0 26.0
539 31.0 69.0
540 22.0 11.0
541 31.0 78.0
542 43.0 43.0
543 37.0 9.0
544 13.0 39.0
545 43.0 52.0
546 4.0 70.0
547 23.0 83.0
548 4.0 79.0
549 16.0 44.0
550 13.0 57.0
551 1.0 55.0
552 4.0 88.0
553 16.0 71.0
554 28.0 45.0
555 40.0 10.0
556 28.0 63.0
557 40.0 28.0
558 7.0 89.0
559 30.0 72.0
560 42.0 83.0
561 10.0 23.0
562 10.0 32.0
563 31.0 64.0
564 13.0 25.0
565 4.0 56.0
566 43.0 38.0
567 1.0 41.0
568 43.0 56.0
569 34.0 84.0
570 28.0 22.0
571 28.0 40.0
572 28.0 49.0
573 40.0 23.0
574 21.0 28.0
575 6.0 39.0
576 10.0 9.0
577 19.0 76.0
578 31.0 59.0
579 31.0 68.0
580 4.0 51.0
581 43.0 33.0
582 16.0 25.0
583 1.0 36.0
584 16.0 34.0
585 1.0 45.0
586 4.0 78.0
587 34.0 79.0
588 13.0 56.0
589 16.0 52.0
590 28.0 17.0
591 22.0 86.0
592 1.0 63.0
593 7.0 70.0
594 26.0 83.0
595 31.0 27.0
596 10.0 13.0
597 31.0 45.0
598 43.0 10.0
599 19.0 89.0
600 31.0 54.0
601 32.0 28.0
602 16.0 11.0
603 1.0 22.0
604 34.0 65.0
605 16.0 29.0
606 4.0 73.0
607 34.0 83.0
608 16.0 47.0
609 1.0 58.0
610 37.0 79.0
611 22.0 90.0
612 37.0 88.0
613 40.0 13.0
614 7.0 74.0
615 8.0 39.0
616 19.0 39.0
617 30.0 39.0
618 39.0 17.0
619 19.0 48.0
620 42.0 50.0
621 31.0 22.0
622 19.0 75.0
623 31.0 40.0
624 4.0 23.0
625 31.0 49.0
626 43.0 14.0
627 13.0 10.0
628 31.0 58.0
629 1.0 8.0
630 1.0 17.0
631 13.0 19.0
632 1.0 26.0
633 24.0 28.0
634 13.0 37.0
635 34.0 69.0
636 16.0 33.0
637 1.0 44.0
638 22.0 76.0
639 34.0 78.0
640 34.0 87.0
641 22.0 85.0
642 37.0 92.0
643 7.0 78.0
644 31.0 8.0
645 4.0 27.0
646 4.0 36.0
647 43.0 18.0
648 10.0 79.0
649 16.0 10.0
650 4.0 45.0
651 1.0 21.0
652 37.0 51.0
653 16.0 28.0
654 34.0 82.0
655 28.0 11.0
656 7.0 46.0
657 7.0 55.0
658 19.0 20.0
659 31.0 21.0
660 31.0 39.0
661 10.0 65.0
662 34.0 32.0
663 25.0 63.0
664 13.0 9.0
665 16.0 14.0
666 37.0 46.0
667 34.0 59.0
668 34.0 68.0
669 22.0 75.0
670 7.0 32.0
671 42.0 17.0
672 7.0 59.0
673 28.0 91.0
674 7.0 68.0
675 40.0 65.0
676 40.0 74.0
677 40.0 83.0
678 29.0 83.0
679 4.0 8.0
680 43.0 8.0
681 25.0 58.0
682 4.0 35.0
683 25.0 67.0
684 34.0 45.0
685 22.0 43.0
686 3.0 39.0
687 37.0 41.0
688 25.0 85.0
689 22.0 61.0
690 7.0 36.0
691 7.0 54.0
692 19.0 19.0
693 40.0 78.0
694 33.0 39.0
695 4.0 12.0
696 10.0 55.0
697 37.0 18.0
698 10.0 64.0
699 22.0 29.0
700 25.0 71.0
701 25.0 80.0
702 22.0 56.0
703 43.0 88.0
704 13.0 84.0
705 7.0 13.0
706 7.0 31.0
707 11.0 28.0
708 25.0 30.0
709 4.0 16.0
710 22.0 15.0
711 10.0 50.0
712 25.0 48.0
713 25.0 57.0
714 25.0 66.0
715 22.0 42.0
716 34.0 44.0
717 43.0 74.0
718 22.0 51.0
719 32.0 83.0
720 13.0 79.0
START_DEPOT_SECTION
1
2
3
4
5
6
7
8
9
10
11
12
13
14
15
16
17
18
19
20
21
22
23
24
25
26
27
28
29
30
31
32
33
34
35
36
37
38
39
40
41
42
43
44
45
46
47
48
49
50
51
52
53
54
55
56
57
58
59
60
61
62
63
64
65
66
67
68
69
70
71
72
73
74
75
76
77
78
79
80
81
82
83
84
85
86
87
88
89
90
91
92
93
94
95
96
97
98
99
100
101
102
103
104
105
106
107
108
109
110
111
112
113
114
115
116
117
118
119
120
-1
END_DEPOT_SECTION
121
122
123
124
125
126
127
128
129
130
131
132
133
134
135
136
137
138
139
140
141
142
143
144
145
146
147
148
149
150
151
152
153
154
155
156
157
158
159
160
161
162
163
164
165
166
167
168
169
170
171
172
173
174
175
176
177
178
179
180
181
182
183
184
185
186
187
188
189
190
191
192
193
194
195
196
197
198
199
200
201
202
203
204
205
206
207
208
209
210
211
212
213
214
215
216
217
218
219
220
221
222
223
224
225
226
227
228
229
230
231
232
233
234
235
236
237
238
239
240
-1
EOF
